 ENCUT  =  500        (Cut-off energy for plane wave basis set, in eV)
# Startparameter for this run:
  PREC   = Accurate
  ICHARG =      2
  NPAR =        4
  NBANDS = 120

# Electronic Relaxation
  EDIFF  =  1E-08
  IALGO  =     38
  NELM   =    100
  NELMDL =     -5

  LCHARG = .FALSE.
  LWAVE  = .TRUE.
  LORBIT = 12

ISYM = -1
