K-Spacing Value to Generate K-Mesh: 0.060
0
Monkhorst-Pack
   3   3   7
0.0  0.0  0.0
